certificates/rado_a15_c20_N81.cnf
c Rad2 upper bound instance: x1 + 15*x2 - x3 = 20, interval [1,81]
p cnf 81 562
1 2 11 0
-1 -2 -11 0
1 3 26 0
-1 -3 -26 0
1 4 41 0
-1 -4 -41 0
1 5 56 0
-1 -5 -56 0
1 6 71 0
-1 -6 -71 0
2 12 0
-2 -12 0
2 3 27 0
-2 -3 -27 0
2 4 42 0
-2 -4 -42 0
2 5 57 0
-2 -5 -57 0
2 6 72 0
-2 -6 -72 0
2 3 13 0
-2 -3 -13 0
3 28 0
-3 -28 0
3 4 43 0
-3 -4 -43 0
3 5 58 0
-3 -5 -58 0
3 6 73 0
-3 -6 -73 0
2 4 14 0
-2 -4 -14 0
3 4 29 0
-3 -4 -29 0
4 44 0
-4 -44 0
4 5 59 0
-4 -5 -59 0
4 6 74 0
-4 -6 -74 0
2 5 15 0
-2 -5 -15 0
3 5 30 0
-3 -5 -30 0
4 5 45 0
-4 -5 -45 0
5 60 0
-5 -60 0
5 6 75 0
-5 -6 -75 0
1 6 0
-1 -6 0
2 6 16 0
-2 -6 -16 0
3 6 31 0
-3 -6 -31 0
4 6 46 0
-4 -6 -46 0
5 6 61 0
-5 -6 -61 0
6 76 0
-6 -76 0
1 2 7 0
-1 -2 -7 0
2 7 17 0
-2 -7 -17 0
3 7 32 0
-3 -7 -32 0
4 7 47 0
-4 -7 -47 0
5 7 62 0
-5 -7 -62 0
6 7 77 0
-6 -7 -77 0
1 3 8 0
-1 -3 -8 0
2 8 18 0
-2 -8 -18 0
3 8 33 0
-3 -8 -33 0
4 8 48 0
-4 -8 -48 0
5 8 63 0
-5 -8 -63 0
6 8 78 0
-6 -8 -78 0
1 4 9 0
-1 -4 -9 0
2 9 19 0
-2 -9 -19 0
3 9 34 0
-3 -9 -34 0
4 9 49 0
-4 -9 -49 0
5 9 64 0
-5 -9 -64 0
6 9 79 0
-6 -9 -79 0
1 5 10 0
-1 -5 -10 0
2 10 20 0
-2 -10 -20 0
3 10 35 0
-3 -10 -35 0
4 10 50 0
-4 -10 -50 0
5 10 65 0
-5 -10 -65 0
6 10 80 0
-6 -10 -80 0
1 6 11 0
-1 -6 -11 0
2 11 21 0
-2 -11 -21 0
3 11 36 0
-3 -11 -36 0
4 11 51 0
-4 -11 -51 0
5 11 66 0
-5 -11 -66 0
6 11 81 0
-6 -11 -81 0
1 7 12 0
-1 -7 -12 0
2 12 22 0
-2 -12 -22 0
3 12 37 0
-3 -12 -37 0
4 12 52 0
-4 -12 -52 0
5 12 67 0
-5 -12 -67 0
1 8 13 0
-1 -8 -13 0
2 13 23 0
-2 -13 -23 0
3 13 38 0
-3 -13 -38 0
4 13 53 0
-4 -13 -53 0
5 13 68 0
-5 -13 -68 0
1 9 14 0
-1 -9 -14 0
2 14 24 0
-2 -14 -24 0
3 14 39 0
-3 -14 -39 0
4 14 54 0
-4 -14 -54 0
5 14 69 0
-5 -14 -69 0
1 10 15 0
-1 -10 -15 0
2 15 25 0
-2 -15 -25 0
3 15 40 0
-3 -15 -40 0
4 15 55 0
-4 -15 -55 0
5 15 70 0
-5 -15 -70 0
1 11 16 0
-1 -11 -16 0
2 16 26 0
-2 -16 -26 0
3 16 41 0
-3 -16 -41 0
4 16 56 0
-4 -16 -56 0
5 16 71 0
-5 -16 -71 0
1 12 17 0
-1 -12 -17 0
2 17 27 0
-2 -17 -27 0
3 17 42 0
-3 -17 -42 0
4 17 57 0
-4 -17 -57 0
5 17 72 0
-5 -17 -72 0
1 13 18 0
-1 -13 -18 0
2 18 28 0
-2 -18 -28 0
3 18 43 0
-3 -18 -43 0
4 18 58 0
-4 -18 -58 0
5 18 73 0
-5 -18 -73 0
1 14 19 0
-1 -14 -19 0
2 19 29 0
-2 -19 -29 0
3 19 44 0
-3 -19 -44 0
4 19 59 0
-4 -19 -59 0
5 19 74 0
-5 -19 -74 0
1 15 20 0
-1 -15 -20 0
2 20 30 0
-2 -20 -30 0
3 20 45 0
-3 -20 -45 0
4 20 60 0
-4 -20 -60 0
5 20 75 0
-5 -20 -75 0
1 16 21 0
-1 -16 -21 0
2 21 31 0
-2 -21 -31 0
3 21 46 0
-3 -21 -46 0
4 21 61 0
-4 -21 -61 0
5 21 76 0
-5 -21 -76 0
1 17 22 0
-1 -17 -22 0
2 22 32 0
-2 -22 -32 0
3 22 47 0
-3 -22 -47 0
4 22 62 0
-4 -22 -62 0
5 22 77 0
-5 -22 -77 0
1 18 23 0
-1 -18 -23 0
2 23 33 0
-2 -23 -33 0
3 23 48 0
-3 -23 -48 0
4 23 63 0
-4 -23 -63 0
5 23 78 0
-5 -23 -78 0
1 19 24 0
-1 -19 -24 0
2 24 34 0
-2 -24 -34 0
3 24 49 0
-3 -24 -49 0
4 24 64 0
-4 -24 -64 0
5 24 79 0
-5 -24 -79 0
1 20 25 0
-1 -20 -25 0
2 25 35 0
-2 -25 -35 0
3 25 50 0
-3 -25 -50 0
4 25 65 0
-4 -25 -65 0
5 25 80 0
-5 -25 -80 0
1 21 26 0
-1 -21 -26 0
2 26 36 0
-2 -26 -36 0
3 26 51 0
-3 -26 -51 0
4 26 66 0
-4 -26 -66 0
5 26 81 0
-5 -26 -81 0
1 22 27 0
-1 -22 -27 0
2 27 37 0
-2 -27 -37 0
3 27 52 0
-3 -27 -52 0
4 27 67 0
-4 -27 -67 0
1 23 28 0
-1 -23 -28 0
2 28 38 0
-2 -28 -38 0
3 28 53 0
-3 -28 -53 0
4 28 68 0
-4 -28 -68 0
1 24 29 0
-1 -24 -29 0
2 29 39 0
-2 -29 -39 0
3 29 54 0
-3 -29 -54 0
4 29 69 0
-4 -29 -69 0
1 25 30 0
-1 -25 -30 0
2 30 40 0
-2 -30 -40 0
3 30 55 0
-3 -30 -55 0
4 30 70 0
-4 -30 -70 0
1 26 31 0
-1 -26 -31 0
2 31 41 0
-2 -31 -41 0
3 31 56 0
-3 -31 -56 0
4 31 71 0
-4 -31 -71 0
1 27 32 0
-1 -27 -32 0
2 32 42 0
-2 -32 -42 0
3 32 57 0
-3 -32 -57 0
4 32 72 0
-4 -32 -72 0
1 28 33 0
-1 -28 -33 0
2 33 43 0
-2 -33 -43 0
3 33 58 0
-3 -33 -58 0
4 33 73 0
-4 -33 -73 0
1 29 34 0
-1 -29 -34 0
2 34 44 0
-2 -34 -44 0
3 34 59 0
-3 -34 -59 0
4 34 74 0
-4 -34 -74 0
1 30 35 0
-1 -30 -35 0
2 35 45 0
-2 -35 -45 0
3 35 60 0
-3 -35 -60 0
4 35 75 0
-4 -35 -75 0
1 31 36 0
-1 -31 -36 0
2 36 46 0
-2 -36 -46 0
3 36 61 0
-3 -36 -61 0
4 36 76 0
-4 -36 -76 0
1 32 37 0
-1 -32 -37 0
2 37 47 0
-2 -37 -47 0
3 37 62 0
-3 -37 -62 0
4 37 77 0
-4 -37 -77 0
1 33 38 0
-1 -33 -38 0
2 38 48 0
-2 -38 -48 0
3 38 63 0
-3 -38 -63 0
4 38 78 0
-4 -38 -78 0
1 34 39 0
-1 -34 -39 0
2 39 49 0
-2 -39 -49 0
3 39 64 0
-3 -39 -64 0
4 39 79 0
-4 -39 -79 0
1 35 40 0
-1 -35 -40 0
2 40 50 0
-2 -40 -50 0
3 40 65 0
-3 -40 -65 0
4 40 80 0
-4 -40 -80 0
1 36 41 0
-1 -36 -41 0
2 41 51 0
-2 -41 -51 0
3 41 66 0
-3 -41 -66 0
4 41 81 0
-4 -41 -81 0
1 37 42 0
-1 -37 -42 0
2 42 52 0
-2 -42 -52 0
3 42 67 0
-3 -42 -67 0
1 38 43 0
-1 -38 -43 0
2 43 53 0
-2 -43 -53 0
3 43 68 0
-3 -43 -68 0
1 39 44 0
-1 -39 -44 0
2 44 54 0
-2 -44 -54 0
3 44 69 0
-3 -44 -69 0
1 40 45 0
-1 -40 -45 0
2 45 55 0
-2 -45 -55 0
3 45 70 0
-3 -45 -70 0
1 41 46 0
-1 -41 -46 0
2 46 56 0
-2 -46 -56 0
3 46 71 0
-3 -46 -71 0
1 42 47 0
-1 -42 -47 0
2 47 57 0
-2 -47 -57 0
3 47 72 0
-3 -47 -72 0
1 43 48 0
-1 -43 -48 0
2 48 58 0
-2 -48 -58 0
3 48 73 0
-3 -48 -73 0
1 44 49 0
-1 -44 -49 0
2 49 59 0
-2 -49 -59 0
3 49 74 0
-3 -49 -74 0
1 45 50 0
-1 -45 -50 0
2 50 60 0
-2 -50 -60 0
3 50 75 0
-3 -50 -75 0
1 46 51 0
-1 -46 -51 0
2 51 61 0
-2 -51 -61 0
3 51 76 0
-3 -51 -76 0
1 47 52 0
-1 -47 -52 0
2 52 62 0
-2 -52 -62 0
3 52 77 0
-3 -52 -77 0
1 48 53 0
-1 -48 -53 0
2 53 63 0
-2 -53 -63 0
3 53 78 0
-3 -53 -78 0
1 49 54 0
-1 -49 -54 0
2 54 64 0
-2 -54 -64 0
3 54 79 0
-3 -54 -79 0
1 50 55 0
-1 -50 -55 0
2 55 65 0
-2 -55 -65 0
3 55 80 0
-3 -55 -80 0
1 51 56 0
-1 -51 -56 0
2 56 66 0
-2 -56 -66 0
3 56 81 0
-3 -56 -81 0
1 52 57 0
-1 -52 -57 0
2 57 67 0
-2 -57 -67 0
1 53 58 0
-1 -53 -58 0
2 58 68 0
-2 -58 -68 0
1 54 59 0
-1 -54 -59 0
2 59 69 0
-2 -59 -69 0
1 55 60 0
-1 -55 -60 0
2 60 70 0
-2 -60 -70 0
1 56 61 0
-1 -56 -61 0
2 61 71 0
-2 -61 -71 0
1 57 62 0
-1 -57 -62 0
2 62 72 0
-2 -62 -72 0
1 58 63 0
-1 -58 -63 0
2 63 73 0
-2 -63 -73 0
1 59 64 0
-1 -59 -64 0
2 64 74 0
-2 -64 -74 0
1 60 65 0
-1 -60 -65 0
2 65 75 0
-2 -65 -75 0
1 61 66 0
-1 -61 -66 0
2 66 76 0
-2 -66 -76 0
1 62 67 0
-1 -62 -67 0
2 67 77 0
-2 -67 -77 0
1 63 68 0
-1 -63 -68 0
2 68 78 0
-2 -68 -78 0
1 64 69 0
-1 -64 -69 0
2 69 79 0
-2 -69 -79 0
1 65 70 0
-1 -65 -70 0
2 70 80 0
-2 -70 -80 0
1 66 71 0
-1 -66 -71 0
2 71 81 0
-2 -71 -81 0
1 67 72 0
-1 -67 -72 0
1 68 73 0
-1 -68 -73 0
1 69 74 0
-1 -69 -74 0
1 70 75 0
-1 -70 -75 0
1 71 76 0
-1 -71 -76 0
1 72 77 0
-1 -72 -77 0
1 73 78 0
-1 -73 -78 0
1 74 79 0
-1 -74 -79 0
1 75 80 0
-1 -75 -80 0
1 76 81 0
-1 -76 -81 0
