certificates/rado_a15_c20_N81.drat
-76 -81 0
-81 0
76 0
-6 0
1 0
11 0
-71 0
-16 0
-2 0
0
